p wcnf 198 232 233 
1 -149 104 0 
1 49 41 0 
1 -160 13 0 
1 -101 48 0 
1 -13 -4 0 
1 100 -69 0 
1 -5 -23 0 
1 -193 13 0 
1 32 -7 0 
1 -74 -84 0 
1 169 -186 0 
1 19 164 0 
1 107 8 0 
1 49 -136 0 
1 -104 12 0 
1 156 -33 0 
1 -25 143 0 
1 104 133 0 
1 -47 -184 0 
1 79 -117 0 
1 121 -77 0 
1 -166 131 0 
1 28 95 0 
1 -77 -14 0 
1 -157 128 0 
1 149 47 0 
1 51 163 0 
1 -158 183 0 
1 -156 -136 0 
1 -108 190 0 
1 175 29 0 
1 141 1 0 
1 -55 60 0 
1 75 145 0 
1 25 184 0 
1 112 17 0 
1 99 60 0 
1 -165 196 0 
1 184 -138 0 
1 31 137 0 
1 92 -147 0 
1 -18 52 0 
1 105 -143 0 
1 -78 -113 0 
1 149 -40 0 
1 153 128 0 
1 6 17 0 
1 -137 -178 0 
1 82 -96 0 
1 -51 -78 0 
1 147 71 0 
1 161 -125 0 
1 2 -162 0 
1 -166 83 0 
1 187 -57 0 
1 167 -77 0 
1 16 83 0 
1 -102 -16 0 
1 126 -34 0 
1 -29 -130 0 
1 -189 75 0 
1 -192 83 0 
1 -76 -2 0 
1 -25 156 0 
1 -48 -88 0 
1 -154 81 0 
1 -23 116 0 
1 124 -66 0 
1 16 125 0 
1 -170 -165 0 
1 -134 -24 0 
1 -173 84 0 
1 -46 -2 0 
1 -116 -104 0 
1 -194 -43 0 
1 58 -137 0 
1 -70 -37 0 
1 170 -73 0 
1 -138 134 0 
1 -12 -142 0 
1 -153 181 0 
1 161 76 0 
1 -40 67 0 
1 -144 7 0 
1 -59 -172 0 
1 170 90 0 
1 19 77 0 
1 -1 33 0 
1 92 -29 0 
1 -105 138 0 
1 -158 -33 0 
1 44 -90 0 
1 -58 149 0 
1 63 81 0 
1 162 76 0 
1 -35 86 0 
1 -75 -62 0 
1 -39 -23 0 
1 186 130 0 
1 99 68 0 
1 82 106 0 
1 52 -35 0 
1 162 -52 0 
1 90 -5 0 
1 20 21 0 
1 66 -70 0 
1 -29 -153 0 
1 165 47 0 
1 192 -85 0 
1 -196 47 0 
1 179 54 0 
1 28 -15 0 
1 6 61 0 
1 -180 -95 0 
1 89 47 0 
1 139 73 0 
1 96 -36 0 
1 40 52 0 
1 23 154 0 
1 -97 -32 0 
1 -50 -23 0 
1 67 -123 0 
1 -90 -64 0 
1 167 66 0 
1 -132 -126 0 
1 121 69 0 
1 -18 -30 0 
1 167 38 0 
1 -196 129 0 
1 12 -27 0 
1 -86 21 0 
1 -97 -93 0 
1 -192 -31 0 
1 118 126 0 
1 -71 45 0 
1 123 -95 0 
1 -57 45 0 
1 -174 -96 0 
1 -144 -20 0 
1 169 56 0 
1 -184 -181 0 
1 179 -32 0 
1 79 -29 0 
1 -26 -116 0 
1 136 175 0 
1 94 23 0 
1 -154 35 0 
1 -143 142 0 
1 145 190 0 
1 -194 -49 0 
1 -90 62 0 
1 168 158 0 
1 -29 -173 0 
1 28 -115 0 
1 -57 -137 0 
1 191 -195 0 
1 129 -132 0 
1 130 85 0 
1 -126 -21 0 
1 -53 -24 0 
1 148 41 0 
1 -4 -166 0 
1 3 -59 0 
1 2 -133 0 
1 48 41 0 
1 -145 -88 0 
1 80 183 0 
1 -156 85 0 
1 107 34 0 
1 -171 -34 0 
1 151 102 0 
1 147 -40 0 
1 7 -40 0 
1 -172 45 0 
1 -20 60 0 
1 38 139 0 
1 131 194 0 
1 -171 -2 0 
1 37 99 0 
1 113 -11 0 
1 83 46 0 
1 114 167 0 
1 146 40 0 
1 -148 58 0 
1 -103 -141 0 
1 116 -40 0 
1 83 -18 0 
1 -116 31 0 
1 182 -165 0 
1 -26 111 0 
1 -170 158 0 
1 -36 -16 0 
1 123 -126 0 
1 -43 18 0 
1 -75 191 0 
1 17 170 0 
1 -43 -146 0 
1 -198 50 0 
1 174 -197 0 
1 35 120 0 
1 -69 -197 0 
1 -36 53 0 
1 -39 62 0 
1 -22 -195 0 
1 -198 -82 0 
1 162 99 0 
1 -38 -140 0 
1 99 176 0 
1 68 -72 0 
1 -196 -1 0 
1 112 -185 0 
1 -86 84 0 
1 -93 -25 0 
1 48 93 0 
1 38 -67 0 
1 56 137 0 
1 -29 -82 0 
1 -51 172 0 
1 99 70 0 
1 -190 39 0 
1 -71 72 0 
1 -79 -66 0 
1 51 115 0 
1 -117 -166 0 
1 194 -16 0 
1 158 -86 0 
1 20 42 0 
1 -162 143 0 
1 36 -27 0 
1 159 -10 0 
1 9 142 0 
1 -165 103 0 
